NAME : eil101
TYPE : OP
DIMENSION : 101
COST_LIMIT : 315
ROUTE_NODES : 58
ROUTE_SCORE : 3655
ROUTE_COST : 315
NODE_SEQUENCE_SECTION
1
50
33
81
79
3
77
76
12
54
55
25
4
21
73
72
74
22
57
15
43
42
87
97
95
96
99
59
93
85
98
37
100
91
44
86
16
61
84
5
60
83
45
8
82
18
52
89
6
94
13
58
40
26
28
101
27
69
-1
DEPOT_SECTION
1
-1
EOF
